Al40 O60
1.0
  10.2223299999999995   -0.1961250000000000   -0.1191570000000000
  -0.1915220000000000   10.6517890000000008   -0.0793030000000000
  -0.1062849999999990   -0.0906739999999990    9.9126619999999992
Al O
40 60
direct
   0.9533100000000001    0.3593100000000000    0.4165689999999990 Al
   0.8266040000000000    0.1134530000000000    0.7328169999999991 Al
   0.1666540000000000    0.8001940000000000    0.5783560000000000 Al
   0.1323030000000000    0.4328720000000000    0.8642390000000000 Al
   0.6511600000000001    0.8863409999999990    0.5447109999999999 Al
   0.0899229999999990    0.2356919999999990    0.6466560000000000 Al
   0.3525570000000000    0.1589960000000000    0.5107060000000000 Al
   0.4112800000000000    0.9319769999999991    0.7398870000000000 Al
   0.1055940000000000    0.3589410000000000    0.1671760000000000 Al
   0.8254279999999991    0.5864150000000000    0.8684210000000000 Al
   0.4986739999999991    0.6205480000000000    0.0574159999999990 Al
   0.5894079999999990    0.1129479999999990    0.0219430000000000 Al
   0.6939200000000001    0.1658830000000000    0.4576179999999990 Al
   0.6136060000000000    0.8063260000000000    0.8609230000000000 Al
   0.2433500000000000    0.6484030000000000    0.0635940000000000 Al
   0.8469760000000000    0.2727190000000000    0.9851639999999990 Al
   0.3351960000000000    0.1813580000000000    0.8203560000000000 Al
   0.0850409999999990    0.8445420000000000    0.1380700000000000 Al
   0.3512630000000000    0.9475629999999990    0.0324820000000000 Al
   0.3392719999999990    0.6468769999999990    0.7550680000000000 Al
   0.5203820000000000    0.3621590000000000    0.5082070000000000 Al
   0.1069540000000000    0.6351990000000000    0.3628409999999990 Al
   0.7711900000000000    0.6736139999999990    0.3657340000000000 Al
   0.0060240000000000    0.0958330000000000    0.2327820000000000 Al
   0.3537420000000000    0.9153739999999990    0.3486070000000000 Al
   0.0365200000000000    0.0238689999999990    0.5158020000000000 Al
   0.8296629999999990    0.0003480000000000    0.0007630000000000 Al
   0.5926770000000000    0.3673730000000000    0.9523600000000001 Al
   0.7782100000000001    0.3616490000000000    0.6903340000000000 Al
   0.6046720000000000    0.6085420000000000    0.6339079999999990 Al
   0.3682260000000000    0.4846390000000000    0.2878850000000000 Al
   0.9071290000000000    0.8679020000000000    0.7526959999999990 Al
   0.6053990000000000    0.9205490000000000    0.2688810000000000 Al
   0.9832379999999999    0.5698920000000000    0.6557450000000000 Al
   0.0994200000000000    0.0871800000000000    0.9715830000000000 Al
   0.6641000000000000    0.3888189999999990    0.2404649999999990 Al
   0.2995819999999990    0.1812969999999990    0.1890480000000000 Al
   0.9167520000000000    0.5460910000000000    0.1811340000000000 Al
   0.7734350000000000    0.7765700000000001    0.0879920000000000 Al
   0.2509920000000000    0.4646630000000000    0.5629210000000000 Al
   0.1657549999999990    0.2264010000000000    0.0633360000000000 O
   0.4326959999999990    0.5903149999999990    0.6247269999999990 O
   0.9089849999999990    0.6990139999999990    0.7457730000000000 O
   0.6638510000000000    0.6450709999999999    0.8003620000000000 O
   0.9784410000000000    0.4979949999999990    0.8188510000000000 O
   0.8779400000000001    0.4530480000000000    0.5680360000000000 O
   0.0332859999999990    0.2471610000000000    0.3019400000000000 O
   0.1827679999999990    0.1215049999999990    0.5583920000000000 O
   0.6781900000000001    0.0002089999999990    0.1203849999999990 O
   0.7045650000000000    0.7839250000000000    0.2563090000000000 O
   0.4788020000000000    0.2609570000000000    0.8818429999999990 O
   0.3982890000000000    0.0863500000000000    0.6773610000000000 O
   0.9480970000000000    0.1439020000000000    0.5951949999999990 O
   0.0967060000000000    0.3716460000000000    0.5468870000000000 O
   0.7854679999999991    0.9525359999999991    0.6605240000000000 O
   0.2845769999999990    0.3430459999999990    0.2402419999999990 O
   0.2898590000000000    0.8036759999999999    0.7088559999999990 O
   0.4259119999999990    0.1158900000000000    0.0912370000000000 O
   0.7364459999999990    0.4175620000000000    0.8656910000000000 O
   0.2627200000000000    0.5479539999999991    0.4079879999999990 O
   0.3180980000000000    0.0849270000000000    0.3433870000000000 O
   0.0401269999999990    0.8946219999999990    0.6277260000000000 O
   0.1385920000000000    0.0106839999999990    0.1393070000000000 O
   0.9070130000000000    0.2606360000000000    0.8096700000000001 O
   0.7280340000000000    0.1137470000000000    0.9002479999999990 O
   0.5027360000000000    0.8868849999999990    0.4325429999999990 O
   0.6910729999999990    0.7109209999999990    0.5179490000000000 O
   0.0956860000000000    0.6470150000000000    0.5507110000000000 O
   0.2189180000000000    0.8277559999999990    0.4133020000000000 O
   0.4813860000000000    0.9326049999999990    0.9094650000000000 O
   0.7023640000000000    0.0069530000000000    0.4106559999999990 O
   0.3774650000000000    0.6156670000000000    0.1810020000000000 O
   0.5627440000000000    0.4733880000000000    0.0811139999999990 O
   0.7773369999999999    0.8579190000000000    0.9040450000000000 O
   0.9374420000000000    0.6843310000000000    0.3383640000000000 O
   0.7621810000000000    0.5263570000000000    0.2686070000000000 O
   0.9195400000000000    0.8798130000000000    0.1045260000000000 O
   0.5249010000000000    0.4339550000000000    0.3457320000000000 O
   0.1868770000000000    0.2769840000000000    0.7974260000000000 O
   0.6061660000000000    0.7430439999999990    0.0282130000000000 O
   0.1746600000000000    0.4876979999999990    0.0289800000000000 O
   0.9363150000000000    0.3920010000000000    0.0849839999999990 O
   0.5250260000000000    0.2021059999999990    0.4561670000000000 O
   0.7697210000000000    0.2930080000000000    0.3629060000000000 O
   0.7180600000000000    0.2095250000000000    0.6329979999999999 O
   0.1165910000000000    0.6842840000000000    0.1858590000000000 O
   0.4290489999999990    0.8942850000000000    0.1900440000000000 O
   0.9882350000000000    0.9860540000000000    0.3545080000000000 O
   0.0341450000000000    0.4762809999999990    0.3006520000000000 O
   0.9683130000000000    0.0089730000000000    0.8609730000000000 O
   0.2182049999999990    0.5223989999999999    0.7361219999999991 O
   0.2223159999999990    0.8163720000000000    0.0216390000000000 O
   0.6764470000000000    0.2726079999999990    0.0847390000000000 O
   0.5522629999999999    0.8468249999999991    0.6931020000000000 O
   0.2556710000000000    0.0462370000000000    0.8980790000000000 O
   0.8536140000000000    0.6341890000000000    0.0401609999999990 O
   0.3776529999999990    0.6399969999999990    0.9268710000000000 O
   0.6334919999999991    0.4429990000000000    0.6155229999999990 O
   0.3560180000000000    0.3326079999999990    0.5584859999999990 O
   0.9251490000000000    0.1346290000000000    0.0728000000000000 O
